problem_generation/data/GISP/train/er_n=63_m=1185_p=0.60_SET2_setparam=100.00_alpha=0.50_992.lp
maximize
OBJ:100x0 + 100x1 + 100x2 + 100x3 + 100x4 + 100x5 + 100x6 + 100x7 + 100x8 + 100x9 + 100x10 + 100x11 + 100x12 + 100x13 + 100x14 + 100x15 + 100x16 + 100x17 + 100x18 + 100x19 + 100x20 + 100x21 + 100x22 + 100x23 + 100x24 + 100x25 + 100x26 + 100x27 + 100x28 + 100x29 + 100x30 + 100x31 + 100x32 + 100x33 + 100x34 + 100x35 + 100x36 + 100x37 + 100x38 + 100x39 + 100x40 + 100x41 + 100x42 + 100x43 + 100x44 + 100x45 + 100x46 + 100x47 + 100x48 + 100x49 + 100x50 + 100x51 + 100x52 + 100x53 + 100x54 + 100x55 + 100x56 + 100x57 + 100x58 + 100x59 + 100x60 + 100x61 + 100x62 - y15_21 - y47_53 - y7_35 - y18_35 - y29_32 - y18_44 - y29_41 - y40_41 - y21_37 - y21_46 - y0_23 - y6_57 - y11_23 - y40_59 - y10_27 - y41_42 - y10_36 - y2_32 - y25_34 - y44_47 - y10_54 - y33_56 - y3_15 - y14_15 - y22_28 - y2_59 - y43_60 - y3_33 - y22_46 - y3_42 - y14_51 - y7_12 - y36_48 - y17_44 - y47_57 - y17_62 - y9_58 - y48_49 - y0_9 - y40_45 - y21_41 - y40_54 - y6_61 - y10_22 - y10_58 - y3_37 - y16_56 - y55_56 - y36_52 - y36_61 - y17_57 - y6_29 - y21_27 - y6_38 - y21_45 - y6_56 - y21_54 - y10_26 - y54_60 - y10_44 - y2_40 - y25_42 - y32_41 - y3_14 - y32_50 - y13_55 - y14_32 - y9_30 - y28_43 - y28_52 - y6_15 - y5_59 - y21_31 - y40_44 - y21_40 - y21_49 - y2_8 - y10_21 - y31_53 - y54_55 - y31_62 - y23_58 - y51_58 - y3_18 - y14_18 - y16_37 - y13_50 - y24_50 - y1_57 - y13_59 - y24_59 - y16_55 - y5_27 - y17_29 - y9_25 - y36_51 - y47_51 - y50_62 - y2_3 - y39_52 - y2_12 - y20_48 - y10_25 - y54_59 - y2_30 - y23_62 - y4_58 - y51_53 - y1_34 - y35_36 - y43_49 - y1_43 - y24_45 - y43_58 - y16_41 - y1_61 - y9_11 - y46_60 - y36_37 - y17_33 - y28_33 - y28_42 - y58_61 - y6_32 - y8_60 - y30_60 - y11_56 - y2_7 - y23_39 - y23_48 - y12_57 - y23_57 - y1_29 - y24_31 - y13_40 - y24_40 - y35_40 - y24_49 - y5_8 - y1_56 - y46_55 - y9_15 - y49_51 - y49_60 - y6_9 - y8_46 - y27_59 - y19_55 - y42_57 - y20_29 - y11_60 - y39_42 - y20_38 - y39_51 - y20_47 - y23_43 - y20_56 - y31_56 - y23_52 - y1_15 - y4_48 - y13_26 - y32_39 - y34_58 - y16_40 - y1_51 - y46_50 - y5_21 - y9_19 - y9_28 - y15_62 - y18_58 - y8_32 - y30_41 - y50_56 - y11_37 - y30_50 - y31_33 - y39_46 - y23_38 - y4_34 - y23_47 - y1_10 - y1_19 - y13_21 - y13_30 - y24_30 - y4_61 - y16_26 - y22_60 - y45_62 - y37_58 - y56_62 - y46_54 - y38_50 - y7_44 - y26_57 - y8_27 - y27_40 - y30_36 - y8_45 - y19_45 - y42_47 - y0_50 - y12_24 - y20_37 - y4_20 - y4_29 - y1_5 - y4_38 - y13_16 - y53_61 - y16_21 - y56_57 - y37_62 - y18_39 - y7_48 - y8_13 - y15_61 - y7_57 - y27_35 - y0_18 - y11_18 - y19_31 - y30_49 - y41_46 - y0_54 - y20_32 - y31_32 - y23_28 - y22_50 - y34_52 - y45_52 - y14_46 - y22_59 - y45_61 - y56_61 - y3_55 - y14_55 - y15_20 - y26_29 - y5_6 - y18_34 - y18_43 - y8_17 - y0_13 - y7_61 - y0_22 - y19_35 - y0_31 - y8_44 - y4_10 - y33_55 - y25_51 - y4_28 - y1_4 - y2_58 - y25_60 - y3_32 - y22_45 - y34_47 - y34_56 - y45_56 - y14_50 - y14_59 - y37_61 - y18_20 - y26_33 - y18_29 - y7_38 - y15_51 - y26_51 - y7_47 - y8_12 - y7_56 - y8_21 - y18_56 - y11_17 - y40_53 - y19_30 - y29_62 - y0_35 - y41_45 - y4_5 - y33_41 - y52_54 - y25_37 - y4_14 - y33_50 - y44_50 - y2_53 - y25_55 - y22_31 - y3_27 - y14_27 - y37_38 - y34_51 - y3_45 - y37_56 - y26_28 - y7_24 - y59_62 - y15_37 - y29_39 - y0_12 - y29_48 - y29_57 - y21_53 - y10_34 - y33_36 - y52_58 - y2_39 - y33_54 - y2_48 - y25_50 - y22_26 - y25_59 - y22_35 - y34_37 - y3_31 - y3_49 - y14_49 - y7_10 - y7_19 - y36_55 - y26_32 - y7_28 - y18_28 - y28_60 - y8_11 - y6_41 - y48_56 - y2_25 - y33_40 - y10_56 - y25_54 - y3_26 - y14_26 - y22_39 - y43_62 - y14_35 - y3_44 - y18_23 - y36_59 - y47_59 - y5_53 - y0_2 - y6_36 - y29_38 - y21_34 - y29_47 - y21_43 - y40_56 - y54_58 - y25_31 - y33_44 - y3_12 - y51_61 - y2_56 - y3_21 - y43_57 - y13_62 - y16_58 - y17_32 - y9_37 - y5_48 - y17_50 - y28_50 - y17_59 - y21_29 - y40_42 - y31_60 - y54_62 - y10_37 - y2_33 - y3_7 - y32_52 - y24_48 - y14_25 - y1_55 - y24_57 - y16_53 - y17_18 - y16_62 - y9_23 - y5_34 - y17_36 - y36_49 - y9_32 - y17_45 - y47_58 - y9_41 - y29_37 - y6_44 - y2_10 - y31_46 - y10_23 - y2_19 - y31_55 - y12_51 - y23_51 - y12_60 - y13_25 - y2_37 - y32_47 - y43_47 - y16_57 - y9_18 - y17_40 - y17_49 - y28_49 - y5_56 - y9_54 - y50_55 - y42_51 - y21_28 - y39_45 - y31_41 - y10_18 - y12_46 - y23_46 - y4_42 - y12_55 - y13_20 - y4_51 - y32_42 - y13_38 - y24_38 - y16_34 - y13_47 - y35_47 - y24_56 - y46_53 - y9_13 - y5_24 - y46_62 - y36_39 - y9_22 - y9_40 - y27_57 - y50_59 - y0_49 - y8_62 - y39_49 - y2_9 - y12_41 - y23_41 - y2_18 - y12_50 - y13_15 - y23_50 - y12_59 - y13_24 - y13_33 - y24_33 - y16_29 - y16_38 - y16_47 - y46_48 - y17_30 - y28_30 - y26_60 - y38_62 - y5_37 - y27_43 - y19_39 - y8_48 - y19_48 - y42_50 - y0_44 - y8_57 - y20_22 - y12_18 - y0_62 - y23_27 - y39_44 - y20_40 - y39_53 - y23_36 - y20_49 - y12_45 - y23_45 - y31_58 - y12_54 - y13_19 - y13_28 - y24_28 - y1_35 - y13_37 - y35_37 - y46_52 - y15_46 - y9_21 - y15_55 - y7_51 - y18_60 - y42_54 - y0_48 - y12_13 - y19_61 - y30_61 - y60_62 - y11_57 - y12_22 - y31_35 - y4_18 - y20_44 - y31_44 - y12_40 - y23_40 - y23_49 - y4_45 - y34_46 - y45_46 - y13_23 - y53_59 - y34_55 - y1_30 - y37_51 - y16_28 - y37_60 - y5_9 - y15_41 - y26_41 - y5_18 - y26_50 - y7_46 - y15_59 - y26_59 - y27_33 - y8_38 - y19_38 - y8_47 - y19_47 - y30_47 - y30_56 - y20_21 - y41_53 - y12_26 - y23_26 - y4_40 - y1_16 - y13_18 - y1_25 - y34_59 - y56_59 - y5_13 - y15_45 - y18_41 - y38_56 - y7_50 - y8_15 - y18_50 - y18_59 - y8_24 - y11_20 - y30_33 - y27_46 - y11_29 - y11_47 - y41_48 - y60_61 - y4_8 - y12_30 - y10_60 - y33_62 - y14_39 - y45_54 - y14_48 - y37_59 - y18_27 - y18_36 - y15_49 - y26_58 - y18_54 - y8_19 - y27_32 - y11_15 - y29_60 - y8_37 - y19_37 - y21_56 - y11_33 - y12_16 - y44_57 - y22_29 - y22_56 - y45_58 - y15_17 - y3_61 - y14_61 - y15_26 - y26_35 - y7_31 - y18_31 - y7_49 - y18_49 - y48_50 - y40_46 - y0_19 - y40_55 - y21_51 - y6_62 - y11_28 - y21_60 - y25_30 - y33_43 - y41_56 - y4_16 - y2_55 - y22_33 - y22_42 - y37_40 - y3_47 - y3_56
 Subject to
C1: x0+x2-y0_2 <=1 
C2: x0+x5 <=1 
C3: x0+x8 <=1 
C4: x0+x9-y0_9 <=1 
C5: x0+x10 <=1 
C6: x0+x11 <=1 
C7: x0+x12-y0_12 <=1 
C8: x0+x13-y0_13 <=1 
C9: x0+x18-y0_18 <=1 
C10: x0+x19-y0_19 <=1 
C11: x0+x22-y0_22 <=1 
C12: x0+x23-y0_23 <=1 
C13: x0+x25 <=1 
C14: x0+x26 <=1 
C15: x0+x27 <=1 
C16: x0+x28 <=1 
C17: x0+x29 <=1 
C18: x0+x31-y0_31 <=1 
C19: x0+x33 <=1 
C20: x0+x34 <=1 
C21: x0+x35-y0_35 <=1 
C22: x0+x38 <=1 
C23: x0+x41 <=1 
C24: x0+x42 <=1 
C25: x0+x44-y0_44 <=1 
C26: x0+x48-y0_48 <=1 
C27: x0+x49-y0_49 <=1 
C28: x0+x50-y0_50 <=1 
C29: x0+x53 <=1 
C30: x0+x54-y0_54 <=1 
C31: x0+x56 <=1 
C32: x0+x62-y0_62 <=1 
C33: x1+x4-y1_4 <=1 
C34: x1+x5-y1_5 <=1 
C35: x1+x6 <=1 
C36: x1+x8 <=1 
C37: x1+x10-y1_10 <=1 
C38: x1+x13 <=1 
C39: x1+x14 <=1 
C40: x1+x15-y1_15 <=1 
C41: x1+x16-y1_16 <=1 
C42: x1+x17 <=1 
C43: x1+x19-y1_19 <=1 
C44: x1+x20 <=1 
C45: x1+x21 <=1 
C46: x1+x23 <=1 
C47: x1+x25-y1_25 <=1 
C48: x1+x29-y1_29 <=1 
C49: x1+x30-y1_30 <=1 
C50: x1+x31 <=1 
C51: x1+x33 <=1 
C52: x1+x34-y1_34 <=1 
C53: x1+x35-y1_35 <=1 
C54: x1+x42 <=1 
C55: x1+x43-y1_43 <=1 
C56: x1+x45 <=1 
C57: x1+x46 <=1 
C58: x1+x47 <=1 
C59: x1+x48 <=1 
C60: x1+x50 <=1 
C61: x1+x51-y1_51 <=1 
C62: x1+x53 <=1 
C63: x1+x54 <=1 
C64: x1+x55-y1_55 <=1 
C65: x1+x56-y1_56 <=1 
C66: x1+x57-y1_57 <=1 
C67: x1+x60 <=1 
C68: x1+x61-y1_61 <=1 
C69: x1+x62 <=1 
C70: x2+x3-y2_3 <=1 
C71: x2+x4 <=1 
C72: x2+x6 <=1 
C73: x2+x7-y2_7 <=1 
C74: x2+x8-y2_8 <=1 
C75: x2+x9-y2_9 <=1 
C76: x2+x10-y2_10 <=1 
C77: x2+x12-y2_12 <=1 
C78: x2+x14 <=1 
C79: x2+x15 <=1 
C80: x2+x18-y2_18 <=1 
C81: x2+x19-y2_19 <=1 
C82: x2+x21 <=1 
C83: x2+x23 <=1 
C84: x2+x24 <=1 
C85: x2+x25-y2_25 <=1 
C86: x2+x26 <=1 
C87: x2+x28 <=1 
C88: x2+x29 <=1 
C89: x2+x30-y2_30 <=1 
C90: x2+x32-y2_32 <=1 
C91: x2+x33-y2_33 <=1 
C92: x2+x36 <=1 
C93: x2+x37-y2_37 <=1 
C94: x2+x39-y2_39 <=1 
C95: x2+x40-y2_40 <=1 
C96: x2+x41 <=1 
C97: x2+x43 <=1 
C98: x2+x44 <=1 
C99: x2+x45 <=1 
C100: x2+x46 <=1 
C101: x2+x47 <=1 
C102: x2+x48-y2_48 <=1 
C103: x2+x53-y2_53 <=1 
C104: x2+x54 <=1 
C105: x2+x55-y2_55 <=1 
C106: x2+x56-y2_56 <=1 
C107: x2+x58-y2_58 <=1 
C108: x2+x59-y2_59 <=1 
C109: x2+x61 <=1 
C110: x3+x7-y3_7 <=1 
C111: x3+x9 <=1 
C112: x3+x11 <=1 
C113: x3+x12-y3_12 <=1 
C114: x3+x14-y3_14 <=1 
C115: x3+x15-y3_15 <=1 
C116: x3+x18-y3_18 <=1 
C117: x3+x21-y3_21 <=1 
C118: x3+x24 <=1 
C119: x3+x25 <=1 
C120: x3+x26-y3_26 <=1 
C121: x3+x27-y3_27 <=1 
C122: x3+x31-y3_31 <=1 
C123: x3+x32-y3_32 <=1 
C124: x3+x33-y3_33 <=1 
C125: x3+x35 <=1 
C126: x3+x37-y3_37 <=1 
C127: x3+x42-y3_42 <=1 
C128: x3+x44-y3_44 <=1 
C129: x3+x45-y3_45 <=1 
C130: x3+x47-y3_47 <=1 
C131: x3+x48 <=1 
C132: x3+x49-y3_49 <=1 
C133: x3+x51 <=1 
C134: x3+x55-y3_55 <=1 
C135: x3+x56-y3_56 <=1 
C136: x3+x57 <=1 
C137: x3+x58 <=1 
C138: x3+x59 <=1 
C139: x3+x61-y3_61 <=1 
C140: x3+x62 <=1 
C141: x4+x5-y4_5 <=1 
C142: x4+x7 <=1 
C143: x4+x8-y4_8 <=1 
C144: x4+x10-y4_10 <=1 
C145: x4+x12 <=1 
C146: x4+x14-y4_14 <=1 
C147: x4+x15 <=1 
C148: x4+x16-y4_16 <=1 
C149: x4+x18-y4_18 <=1 
C150: x4+x20-y4_20 <=1 
C151: x4+x23 <=1 
C152: x4+x24 <=1 
C153: x4+x25 <=1 
C154: x4+x26 <=1 
C155: x4+x27 <=1 
C156: x4+x28-y4_28 <=1 
C157: x4+x29-y4_29 <=1 
C158: x4+x33 <=1 
C159: x4+x34-y4_34 <=1 
C160: x4+x38-y4_38 <=1 
C161: x4+x40-y4_40 <=1 
C162: x4+x41 <=1 
C163: x4+x42-y4_42 <=1 
C164: x4+x43 <=1 
C165: x4+x45-y4_45 <=1 
C166: x4+x47 <=1 
C167: x4+x48-y4_48 <=1 
C168: x4+x51-y4_51 <=1 
C169: x4+x52 <=1 
C170: x4+x53 <=1 
C171: x4+x54 <=1 
C172: x4+x57 <=1 
C173: x4+x58-y4_58 <=1 
C174: x4+x61-y4_61 <=1 
C175: x4+x62 <=1 
C176: x5+x6-y5_6 <=1 
C177: x5+x7 <=1 
C178: x5+x8-y5_8 <=1 
C179: x5+x9-y5_9 <=1 
C180: x5+x12 <=1 
C181: x5+x13-y5_13 <=1 
C182: x5+x14 <=1 
C183: x5+x15 <=1 
C184: x5+x16 <=1 
C185: x5+x17 <=1 
C186: x5+x18-y5_18 <=1 
C187: x5+x19 <=1 
C188: x5+x21-y5_21 <=1 
C189: x5+x22 <=1 
C190: x5+x23 <=1 
C191: x5+x24-y5_24 <=1 
C192: x5+x25 <=1 
C193: x5+x26 <=1 
C194: x5+x27-y5_27 <=1 
C195: x5+x29 <=1 
C196: x5+x31 <=1 
C197: x5+x34-y5_34 <=1 
C198: x5+x35 <=1 
C199: x5+x36 <=1 
C200: x5+x37-y5_37 <=1 
C201: x5+x46 <=1 
C202: x5+x47 <=1 
C203: x5+x48-y5_48 <=1 
C204: x5+x53-y5_53 <=1 
C205: x5+x56-y5_56 <=1 
C206: x5+x59-y5_59 <=1 
C207: x5+x60 <=1 
C208: x5+x61 <=1 
C209: x6+x7 <=1 
C210: x6+x8 <=1 
C211: x6+x9-y6_9 <=1 
C212: x6+x13 <=1 
C213: x6+x14 <=1 
C214: x6+x15-y6_15 <=1 
C215: x6+x17 <=1 
C216: x6+x21 <=1 
C217: x6+x23 <=1 
C218: x6+x26 <=1 
C219: x6+x27 <=1 
C220: x6+x28 <=1 
C221: x6+x29-y6_29 <=1 
C222: x6+x30 <=1 
C223: x6+x32-y6_32 <=1 
C224: x6+x33 <=1 
C225: x6+x34 <=1 
C226: x6+x36-y6_36 <=1 
C227: x6+x38-y6_38 <=1 
C228: x6+x41-y6_41 <=1 
C229: x6+x42 <=1 
C230: x6+x44-y6_44 <=1 
C231: x6+x47 <=1 
C232: x6+x50 <=1 
C233: x6+x55 <=1 
C234: x6+x56-y6_56 <=1 
C235: x6+x57-y6_57 <=1 
C236: x6+x59 <=1 
C237: x6+x61-y6_61 <=1 
C238: x6+x62-y6_62 <=1 
C239: x7+x8 <=1 
C240: x7+x10-y7_10 <=1 
C241: x7+x11 <=1 
C242: x7+x12-y7_12 <=1 
C243: x7+x14 <=1 
C244: x7+x16 <=1 
C245: x7+x19-y7_19 <=1 
C246: x7+x22 <=1 
C247: x7+x24-y7_24 <=1 
C248: x7+x25 <=1 
C249: x7+x28-y7_28 <=1 
C250: x7+x29 <=1 
C251: x7+x30 <=1 
C252: x7+x31-y7_31 <=1 
C253: x7+x32 <=1 
C254: x7+x34 <=1 
C255: x7+x35-y7_35 <=1 
C256: x7+x37 <=1 
C257: x7+x38-y7_38 <=1 
C258: x7+x39 <=1 
C259: x7+x43 <=1 
C260: x7+x44-y7_44 <=1 
C261: x7+x46-y7_46 <=1 
C262: x7+x47-y7_47 <=1 
C263: x7+x48-y7_48 <=1 
C264: x7+x49-y7_49 <=1 
C265: x7+x50-y7_50 <=1 
C266: x7+x51-y7_51 <=1 
C267: x7+x52 <=1 
C268: x7+x53 <=1 
C269: x7+x55 <=1 
C270: x7+x56-y7_56 <=1 
C271: x7+x57-y7_57 <=1 
C272: x7+x58 <=1 
C273: x7+x59 <=1 
C274: x7+x60 <=1 
C275: x7+x61-y7_61 <=1 
C276: x8+x10 <=1 
C277: x8+x11-y8_11 <=1 
C278: x8+x12-y8_12 <=1 
C279: x8+x13-y8_13 <=1 
C280: x8+x15-y8_15 <=1 
C281: x8+x16 <=1 
C282: x8+x17-y8_17 <=1 
C283: x8+x18 <=1 
C284: x8+x19-y8_19 <=1 
C285: x8+x21-y8_21 <=1 
C286: x8+x22 <=1 
C287: x8+x23 <=1 
C288: x8+x24-y8_24 <=1 
C289: x8+x27-y8_27 <=1 
C290: x8+x29 <=1 
C291: x8+x32-y8_32 <=1 
C292: x8+x35 <=1 
C293: x8+x36 <=1 
C294: x8+x37-y8_37 <=1 
C295: x8+x38-y8_38 <=1 
C296: x8+x39 <=1 
C297: x8+x42 <=1 
C298: x8+x44-y8_44 <=1 
C299: x8+x45-y8_45 <=1 
C300: x8+x46-y8_46 <=1 
C301: x8+x47-y8_47 <=1 
C302: x8+x48-y8_48 <=1 
C303: x8+x49 <=1 
C304: x8+x50 <=1 
C305: x8+x54 <=1 
C306: x8+x57-y8_57 <=1 
C307: x8+x59 <=1 
C308: x8+x60-y8_60 <=1 
C309: x8+x62-y8_62 <=1 
C310: x9+x11-y9_11 <=1 
C311: x9+x13-y9_13 <=1 
C312: x9+x15-y9_15 <=1 
C313: x9+x16 <=1 
C314: x9+x17 <=1 
C315: x9+x18-y9_18 <=1 
C316: x9+x19-y9_19 <=1 
C317: x9+x21-y9_21 <=1 
C318: x9+x22-y9_22 <=1 
C319: x9+x23-y9_23 <=1 
C320: x9+x25-y9_25 <=1 
C321: x9+x28-y9_28 <=1 
C322: x9+x29 <=1 
C323: x9+x30-y9_30 <=1 
C324: x9+x31 <=1 
C325: x9+x32-y9_32 <=1 
C326: x9+x33 <=1 
C327: x9+x36 <=1 
C328: x9+x37-y9_37 <=1 
C329: x9+x39 <=1 
C330: x9+x40-y9_40 <=1 
C331: x9+x41-y9_41 <=1 
C332: x9+x42 <=1 
C333: x9+x43 <=1 
C334: x9+x44 <=1 
C335: x9+x46 <=1 
C336: x9+x47 <=1 
C337: x9+x51 <=1 
C338: x9+x52 <=1 
C339: x9+x53 <=1 
C340: x9+x54-y9_54 <=1 
C341: x9+x55 <=1 
C342: x9+x58-y9_58 <=1 
C343: x9+x59 <=1 
C344: x9+x60 <=1 
C345: x9+x61 <=1 
C346: x9+x62 <=1 
C347: x10+x13 <=1 
C348: x10+x14 <=1 
C349: x10+x15 <=1 
C350: x10+x18-y10_18 <=1 
C351: x10+x19 <=1 
C352: x10+x20 <=1 
C353: x10+x21-y10_21 <=1 
C354: x10+x22-y10_22 <=1 
C355: x10+x23-y10_23 <=1 
C356: x10+x24 <=1 
C357: x10+x25-y10_25 <=1 
C358: x10+x26-y10_26 <=1 
C359: x10+x27-y10_27 <=1 
C360: x10+x30 <=1 
C361: x10+x31 <=1 
C362: x10+x33 <=1 
C363: x10+x34-y10_34 <=1 
C364: x10+x36-y10_36 <=1 
C365: x10+x37-y10_37 <=1 
C366: x10+x39 <=1 
C367: x10+x40 <=1 
C368: x10+x41 <=1 
C369: x10+x42 <=1 
C370: x10+x43 <=1 
C371: x10+x44-y10_44 <=1 
C372: x10+x49 <=1 
C373: x10+x50 <=1 
C374: x10+x51 <=1 
C375: x10+x53 <=1 
C376: x10+x54-y10_54 <=1 
C377: x10+x55 <=1 
C378: x10+x56-y10_56 <=1 
C379: x10+x58-y10_58 <=1 
C380: x10+x60-y10_60 <=1 
C381: x10+x61 <=1 
C382: x11+x15-y11_15 <=1 
C383: x11+x17-y11_17 <=1 
C384: x11+x18-y11_18 <=1 
C385: x11+x19 <=1 
C386: x11+x20-y11_20 <=1 
C387: x11+x21 <=1 
C388: x11+x23-y11_23 <=1 
C389: x11+x24 <=1 
C390: x11+x26 <=1 
C391: x11+x28-y11_28 <=1 
C392: x11+x29-y11_29 <=1 
C393: x11+x30 <=1 
C394: x11+x33-y11_33 <=1 
C395: x11+x35 <=1 
C396: x11+x36 <=1 
C397: x11+x37-y11_37 <=1 
C398: x11+x39 <=1 
C399: x11+x41 <=1 
C400: x11+x47-y11_47 <=1 
C401: x11+x48 <=1 
C402: x11+x49 <=1 
C403: x11+x51 <=1 
C404: x11+x53 <=1 
C405: x11+x56-y11_56 <=1 
C406: x11+x57-y11_57 <=1 
C407: x11+x58 <=1 
C408: x11+x59 <=1 
C409: x11+x60-y11_60 <=1 
C410: x11+x61 <=1 
C411: x12+x13-y12_13 <=1 
C412: x12+x15 <=1 
C413: x12+x16-y12_16 <=1 
C414: x12+x17 <=1 
C415: x12+x18-y12_18 <=1 
C416: x12+x20 <=1 
C417: x12+x22-y12_22 <=1 
C418: x12+x23 <=1 
C419: x12+x24-y12_24 <=1 
C420: x12+x25 <=1 
C421: x12+x26-y12_26 <=1 
C422: x12+x27 <=1 
C423: x12+x29 <=1 
C424: x12+x30-y12_30 <=1 
C425: x12+x32 <=1 
C426: x12+x33 <=1 
C427: x12+x34 <=1 
C428: x12+x38 <=1 
C429: x12+x40-y12_40 <=1 
C430: x12+x41-y12_41 <=1 
C431: x12+x42 <=1 
C432: x12+x43 <=1 
C433: x12+x44 <=1 
C434: x12+x45-y12_45 <=1 
C435: x12+x46-y12_46 <=1 
C436: x12+x50-y12_50 <=1 
C437: x12+x51-y12_51 <=1 
C438: x12+x53 <=1 
C439: x12+x54-y12_54 <=1 
C440: x12+x55-y12_55 <=1 
C441: x12+x56 <=1 
C442: x12+x57-y12_57 <=1 
C443: x12+x59-y12_59 <=1 
C444: x12+x60-y12_60 <=1 
C445: x12+x61 <=1 
C446: x12+x62 <=1 
C447: x13+x14 <=1 
C448: x13+x15-y13_15 <=1 
C449: x13+x16-y13_16 <=1 
C450: x13+x17 <=1 
C451: x13+x18-y13_18 <=1 
C452: x13+x19-y13_19 <=1 
C453: x13+x20-y13_20 <=1 
C454: x13+x21-y13_21 <=1 
C455: x13+x23-y13_23 <=1 
C456: x13+x24-y13_24 <=1 
C457: x13+x25-y13_25 <=1 
C458: x13+x26-y13_26 <=1 
C459: x13+x27 <=1 
C460: x13+x28-y13_28 <=1 
C461: x13+x30-y13_30 <=1 
C462: x13+x33-y13_33 <=1 
C463: x13+x35 <=1 
C464: x13+x37-y13_37 <=1 
C465: x13+x38-y13_38 <=1 
C466: x13+x40-y13_40 <=1 
C467: x13+x41 <=1 
C468: x13+x42 <=1 
C469: x13+x47-y13_47 <=1 
C470: x13+x48 <=1 
C471: x13+x50-y13_50 <=1 
C472: x13+x55-y13_55 <=1 
C473: x13+x56 <=1 
C474: x13+x59-y13_59 <=1 
C475: x13+x62-y13_62 <=1 
C476: x14+x15-y14_15 <=1 
C477: x14+x16 <=1 
C478: x14+x18-y14_18 <=1 
C479: x14+x23 <=1 
C480: x14+x24 <=1 
C481: x14+x25-y14_25 <=1 
C482: x14+x26-y14_26 <=1 
C483: x14+x27-y14_27 <=1 
C484: x14+x29 <=1 
C485: x14+x30 <=1 
C486: x14+x32-y14_32 <=1 
C487: x14+x33 <=1 
C488: x14+x35-y14_35 <=1 
C489: x14+x36 <=1 
C490: x14+x38 <=1 
C491: x14+x39-y14_39 <=1 
C492: x14+x40 <=1 
C493: x14+x45 <=1 
C494: x14+x46-y14_46 <=1 
C495: x14+x48-y14_48 <=1 
C496: x14+x49-y14_49 <=1 
C497: x14+x50-y14_50 <=1 
C498: x14+x51-y14_51 <=1 
C499: x14+x53 <=1 
C500: x14+x54 <=1 
C501: x14+x55-y14_55 <=1 
C502: x14+x56 <=1 
C503: x14+x59-y14_59 <=1 
C504: x14+x61-y14_61 <=1 
C505: x15+x17-y15_17 <=1 
C506: x15+x20-y15_20 <=1 
C507: x15+x21-y15_21 <=1 
C508: x15+x24 <=1 
C509: x15+x26-y15_26 <=1 
C510: x15+x27 <=1 
C511: x15+x31 <=1 
C512: x15+x32 <=1 
C513: x15+x37-y15_37 <=1 
C514: x15+x38 <=1 
C515: x15+x39 <=1 
C516: x15+x41-y15_41 <=1 
C517: x15+x44 <=1 
C518: x15+x45-y15_45 <=1 
C519: x15+x46-y15_46 <=1 
C520: x15+x48 <=1 
C521: x15+x49-y15_49 <=1 
C522: x15+x50 <=1 
C523: x15+x51-y15_51 <=1 
C524: x15+x54 <=1 
C525: x15+x55-y15_55 <=1 
C526: x15+x57 <=1 
C527: x15+x59-y15_59 <=1 
C528: x15+x61-y15_61 <=1 
C529: x15+x62-y15_62 <=1 
C530: x16+x18 <=1 
C531: x16+x21-y16_21 <=1 
C532: x16+x23 <=1 
C533: x16+x26-y16_26 <=1 
C534: x16+x28-y16_28 <=1 
C535: x16+x29-y16_29 <=1 
C536: x16+x32 <=1 
C537: x16+x34-y16_34 <=1 
C538: x16+x35 <=1 
C539: x16+x36 <=1 
C540: x16+x37-y16_37 <=1 
C541: x16+x38-y16_38 <=1 
C542: x16+x39 <=1 
C543: x16+x40-y16_40 <=1 
C544: x16+x41-y16_41 <=1 
C545: x16+x44 <=1 
C546: x16+x45 <=1 
C547: x16+x46 <=1 
C548: x16+x47-y16_47 <=1 
C549: x16+x48 <=1 
C550: x16+x50 <=1 
C551: x16+x52 <=1 
C552: x16+x53-y16_53 <=1 
C553: x16+x55-y16_55 <=1 
C554: x16+x56-y16_56 <=1 
C555: x16+x57-y16_57 <=1 
C556: x16+x58-y16_58 <=1 
C557: x16+x60 <=1 
C558: x16+x62-y16_62 <=1 
C559: x17+x18-y17_18 <=1 
C560: x17+x21 <=1 
C561: x17+x25 <=1 
C562: x17+x26 <=1 
C563: x17+x29-y17_29 <=1 
C564: x17+x30-y17_30 <=1 
C565: x17+x32-y17_32 <=1 
C566: x17+x33-y17_33 <=1 
C567: x17+x36-y17_36 <=1 
C568: x17+x38 <=1 
C569: x17+x39 <=1 
C570: x17+x40-y17_40 <=1 
C571: x17+x44-y17_44 <=1 
C572: x17+x45-y17_45 <=1 
C573: x17+x49-y17_49 <=1 
C574: x17+x50-y17_50 <=1 
C575: x17+x54 <=1 
C576: x17+x55 <=1 
C577: x17+x57-y17_57 <=1 
C578: x17+x58 <=1 
C579: x17+x59-y17_59 <=1 
C580: x17+x60 <=1 
C581: x17+x61 <=1 
C582: x17+x62-y17_62 <=1 
C583: x18+x20-y18_20 <=1 
C584: x18+x23-y18_23 <=1 
C585: x18+x27-y18_27 <=1 
C586: x18+x28-y18_28 <=1 
C587: x18+x29-y18_29 <=1 
C588: x18+x31-y18_31 <=1 
C589: x18+x34-y18_34 <=1 
C590: x18+x35-y18_35 <=1 
C591: x18+x36-y18_36 <=1 
C592: x18+x37 <=1 
C593: x18+x38 <=1 
C594: x18+x39-y18_39 <=1 
C595: x18+x41-y18_41 <=1 
C596: x18+x42 <=1 
C597: x18+x43-y18_43 <=1 
C598: x18+x44-y18_44 <=1 
C599: x18+x46 <=1 
C600: x18+x49-y18_49 <=1 
C601: x18+x50-y18_50 <=1 
C602: x18+x51 <=1 
C603: x18+x54-y18_54 <=1 
C604: x18+x56-y18_56 <=1 
C605: x18+x57 <=1 
C606: x18+x58-y18_58 <=1 
C607: x18+x59-y18_59 <=1 
C608: x18+x60-y18_60 <=1 
C609: x19+x21 <=1 
C610: x19+x22 <=1 
C611: x19+x27 <=1 
C612: x19+x29 <=1 
C613: x19+x30-y19_30 <=1 
C614: x19+x31-y19_31 <=1 
C615: x19+x32 <=1 
C616: x19+x33 <=1 
C617: x19+x35-y19_35 <=1 
C618: x19+x37-y19_37 <=1 
C619: x19+x38-y19_38 <=1 
C620: x19+x39-y19_39 <=1 
C621: x19+x44 <=1 
C622: x19+x45-y19_45 <=1 
C623: x19+x46 <=1 
C624: x19+x47-y19_47 <=1 
C625: x19+x48-y19_48 <=1 
C626: x19+x51 <=1 
C627: x19+x52 <=1 
C628: x19+x53 <=1 
C629: x19+x54 <=1 
C630: x19+x55-y19_55 <=1 
C631: x19+x57 <=1 
C632: x19+x58 <=1 
C633: x19+x59 <=1 
C634: x19+x61-y19_61 <=1 
C635: x20+x21-y20_21 <=1 
C636: x20+x22-y20_22 <=1 
C637: x20+x26 <=1 
C638: x20+x29-y20_29 <=1 
C639: x20+x32-y20_32 <=1 
C640: x20+x33 <=1 
C641: x20+x34 <=1 
C642: x20+x36 <=1 
C643: x20+x37-y20_37 <=1 
C644: x20+x38-y20_38 <=1 
C645: x20+x40-y20_40 <=1 
C646: x20+x41 <=1 
C647: x20+x43 <=1 
C648: x20+x44-y20_44 <=1 
C649: x20+x46 <=1 
C650: x20+x47-y20_47 <=1 
C651: x20+x48-y20_48 <=1 
C652: x20+x49-y20_49 <=1 
C653: x20+x51 <=1 
C654: x20+x52 <=1 
C655: x20+x54 <=1 
C656: x20+x56-y20_56 <=1 
C657: x20+x59 <=1 
C658: x20+x60 <=1 
C659: x21+x23 <=1 
C660: x21+x24 <=1 
C661: x21+x26 <=1 
C662: x21+x27-y21_27 <=1 
C663: x21+x28-y21_28 <=1 
C664: x21+x29-y21_29 <=1 
C665: x21+x30 <=1 
C666: x21+x31-y21_31 <=1 
C667: x21+x32 <=1 
C668: x21+x34-y21_34 <=1 
C669: x21+x35 <=1 
C670: x21+x36 <=1 
C671: x21+x37-y21_37 <=1 
C672: x21+x40-y21_40 <=1 
C673: x21+x41-y21_41 <=1 
C674: x21+x43-y21_43 <=1 
C675: x21+x45-y21_45 <=1 
C676: x21+x46-y21_46 <=1 
C677: x21+x48 <=1 
C678: x21+x49-y21_49 <=1 
C679: x21+x50 <=1 
C680: x21+x51-y21_51 <=1 
C681: x21+x53-y21_53 <=1 
C682: x21+x54-y21_54 <=1 
C683: x21+x56-y21_56 <=1 
C684: x21+x58 <=1 
C685: x21+x60-y21_60 <=1 
C686: x21+x61 <=1 
C687: x22+x26-y22_26 <=1 
C688: x22+x28-y22_28 <=1 
C689: x22+x29-y22_29 <=1 
C690: x22+x31-y22_31 <=1 
C691: x22+x33-y22_33 <=1 
C692: x22+x35-y22_35 <=1 
C693: x22+x36 <=1 
C694: x22+x39-y22_39 <=1 
C695: x22+x42-y22_42 <=1 
C696: x22+x44 <=1 
C697: x22+x45-y22_45 <=1 
C698: x22+x46-y22_46 <=1 
C699: x22+x50-y22_50 <=1 
C700: x22+x52 <=1 
C701: x22+x54 <=1 
C702: x22+x55 <=1 
C703: x22+x56-y22_56 <=1 
C704: x22+x57 <=1 
C705: x22+x59-y22_59 <=1 
C706: x22+x60-y22_60 <=1 
C707: x22+x62 <=1 
C708: x23+x25 <=1 
C709: x23+x26-y23_26 <=1 
C710: x23+x27-y23_27 <=1 
C711: x23+x28-y23_28 <=1 
C712: x23+x32 <=1 
C713: x23+x33 <=1 
C714: x23+x34 <=1 
C715: x23+x35 <=1 
C716: x23+x36-y23_36 <=1 
C717: x23+x37 <=1 
C718: x23+x38-y23_38 <=1 
C719: x23+x39-y23_39 <=1 
C720: x23+x40-y23_40 <=1 
C721: x23+x41-y23_41 <=1 
C722: x23+x43-y23_43 <=1 
C723: x23+x44 <=1 
C724: x23+x45-y23_45 <=1 
C725: x23+x46-y23_46 <=1 
C726: x23+x47-y23_47 <=1 
C727: x23+x48-y23_48 <=1 
C728: x23+x49-y23_49 <=1 
C729: x23+x50-y23_50 <=1 
C730: x23+x51-y23_51 <=1 
C731: x23+x52-y23_52 <=1 
C732: x23+x53 <=1 
C733: x23+x55 <=1 
C734: x23+x57-y23_57 <=1 
C735: x23+x58-y23_58 <=1 
C736: x23+x60 <=1 
C737: x23+x62-y23_62 <=1 
C738: x24+x25 <=1 
C739: x24+x28-y24_28 <=1 
C740: x24+x29 <=1 
C741: x24+x30-y24_30 <=1 
C742: x24+x31-y24_31 <=1 
C743: x24+x32 <=1 
C744: x24+x33-y24_33 <=1 
C745: x24+x35 <=1 
C746: x24+x36 <=1 
C747: x24+x38-y24_38 <=1 
C748: x24+x39 <=1 
C749: x24+x40-y24_40 <=1 
C750: x24+x44 <=1 
C751: x24+x45-y24_45 <=1 
C752: x24+x46 <=1 
C753: x24+x47 <=1 
C754: x24+x48-y24_48 <=1 
C755: x24+x49-y24_49 <=1 
C756: x24+x50-y24_50 <=1 
C757: x24+x51 <=1 
C758: x24+x52 <=1 
C759: x24+x53 <=1 
C760: x24+x55 <=1 
C761: x24+x56-y24_56 <=1 
C762: x24+x57-y24_57 <=1 
C763: x24+x58 <=1 
C764: x24+x59-y24_59 <=1 
C765: x24+x60 <=1 
C766: x24+x61 <=1 
C767: x25+x26 <=1 
C768: x25+x28 <=1 
C769: x25+x30-y25_30 <=1 
C770: x25+x31-y25_31 <=1 
C771: x25+x32 <=1 
C772: x25+x33 <=1 
C773: x25+x34-y25_34 <=1 
C774: x25+x35 <=1 
C775: x25+x36 <=1 
C776: x25+x37-y25_37 <=1 
C777: x25+x41 <=1 
C778: x25+x42-y25_42 <=1 
C779: x25+x43 <=1 
C780: x25+x44 <=1 
C781: x25+x45 <=1 
C782: x25+x46 <=1 
C783: x25+x47 <=1 
C784: x25+x48 <=1 
C785: x25+x50-y25_50 <=1 
C786: x25+x51-y25_51 <=1 
C787: x25+x54-y25_54 <=1 
C788: x25+x55-y25_55 <=1 
C789: x25+x56 <=1 
C790: x25+x58 <=1 
C791: x25+x59-y25_59 <=1 
C792: x25+x60-y25_60 <=1 
C793: x25+x61 <=1 
C794: x26+x28-y26_28 <=1 
C795: x26+x29-y26_29 <=1 
C796: x26+x31 <=1 
C797: x26+x32-y26_32 <=1 
C798: x26+x33-y26_33 <=1 
C799: x26+x34 <=1 
C800: x26+x35-y26_35 <=1 
C801: x26+x41-y26_41 <=1 
C802: x26+x43 <=1 
C803: x26+x44 <=1 
C804: x26+x45 <=1 
C805: x26+x47 <=1 
C806: x26+x49 <=1 
C807: x26+x50-y26_50 <=1 
C808: x26+x51-y26_51 <=1 
C809: x26+x55 <=1 
C810: x26+x57-y26_57 <=1 
C811: x26+x58-y26_58 <=1 
C812: x26+x59-y26_59 <=1 
C813: x26+x60-y26_60 <=1 
C814: x26+x62 <=1 
C815: x27+x32-y27_32 <=1 
C816: x27+x33-y27_33 <=1 
C817: x27+x34 <=1 
C818: x27+x35-y27_35 <=1 
C819: x27+x36 <=1 
C820: x27+x37 <=1 
C821: x27+x40-y27_40 <=1 
C822: x27+x41 <=1 
C823: x27+x43-y27_43 <=1 
C824: x27+x44 <=1 
C825: x27+x45 <=1 
C826: x27+x46-y27_46 <=1 
C827: x27+x47 <=1 
C828: x27+x52 <=1 
C829: x27+x57-y27_57 <=1 
C830: x27+x59-y27_59 <=1 
C831: x27+x61 <=1 
C832: x27+x62 <=1 
C833: x28+x30-y28_30 <=1 
C834: x28+x31 <=1 
C835: x28+x33-y28_33 <=1 
C836: x28+x35 <=1 
C837: x28+x39 <=1 
C838: x28+x40 <=1 
C839: x28+x41 <=1 
C840: x28+x42-y28_42 <=1 
C841: x28+x43-y28_43 <=1 
C842: x28+x44 <=1 
C843: x28+x45 <=1 
C844: x28+x46 <=1 
C845: x28+x48 <=1 
C846: x28+x49-y28_49 <=1 
C847: x28+x50-y28_50 <=1 
C848: x28+x52-y28_52 <=1 
C849: x28+x55 <=1 
C850: x28+x56 <=1 
C851: x28+x58 <=1 
C852: x28+x59 <=1 
C853: x28+x60-y28_60 <=1 
C854: x29+x32-y29_32 <=1 
C855: x29+x33 <=1 
C856: x29+x35 <=1 
C857: x29+x37-y29_37 <=1 
C858: x29+x38-y29_38 <=1 
C859: x29+x39-y29_39 <=1 
C860: x29+x41-y29_41 <=1 
C861: x29+x44 <=1 
C862: x29+x45 <=1 
C863: x29+x47-y29_47 <=1 
C864: x29+x48-y29_48 <=1 
C865: x29+x52 <=1 
C866: x29+x57-y29_57 <=1 
C867: x29+x59 <=1 
C868: x29+x60-y29_60 <=1 
C869: x29+x61 <=1 
C870: x29+x62-y29_62 <=1 
C871: x30+x33-y30_33 <=1 
C872: x30+x34 <=1 
C873: x30+x36-y30_36 <=1 
C874: x30+x37 <=1 
C875: x30+x38 <=1 
C876: x30+x39 <=1 
C877: x30+x40 <=1 
C878: x30+x41-y30_41 <=1 
C879: x30+x43 <=1 
C880: x30+x45 <=1 
C881: x30+x47-y30_47 <=1 
C882: x30+x48 <=1 
C883: x30+x49-y30_49 <=1 
C884: x30+x50-y30_50 <=1 
C885: x30+x51 <=1 
C886: x30+x52 <=1 
C887: x30+x56-y30_56 <=1 
C888: x30+x58 <=1 
C889: x30+x60-y30_60 <=1 
C890: x30+x61-y30_61 <=1 
C891: x31+x32-y31_32 <=1 
C892: x31+x33-y31_33 <=1 
C893: x31+x35-y31_35 <=1 
C894: x31+x41-y31_41 <=1 
C895: x31+x44-y31_44 <=1 
C896: x31+x46-y31_46 <=1 
C897: x31+x50 <=1 
C898: x31+x51 <=1 
C899: x31+x53-y31_53 <=1 
C900: x31+x55-y31_55 <=1 
C901: x31+x56-y31_56 <=1 
C902: x31+x57 <=1 
C903: x31+x58-y31_58 <=1 
C904: x31+x59 <=1 
C905: x31+x60-y31_60 <=1 
C906: x31+x61 <=1 
C907: x31+x62-y31_62 <=1 
C908: x32+x34 <=1 
C909: x32+x35 <=1 
C910: x32+x37 <=1 
C911: x32+x39-y32_39 <=1 
C912: x32+x41-y32_41 <=1 
C913: x32+x42-y32_42 <=1 
C914: x32+x45 <=1 
C915: x32+x47-y32_47 <=1 
C916: x32+x49 <=1 
C917: x32+x50-y32_50 <=1 
C918: x32+x52-y32_52 <=1 
C919: x32+x53 <=1 
C920: x32+x55 <=1 
C921: x32+x56 <=1 
C922: x32+x57 <=1 
C923: x32+x60 <=1 
C924: x32+x61 <=1 
C925: x33+x35 <=1 
C926: x33+x36-y33_36 <=1 
C927: x33+x38 <=1 
C928: x33+x39 <=1 
C929: x33+x40-y33_40 <=1 
C930: x33+x41-y33_41 <=1 
C931: x33+x42 <=1 
C932: x33+x43-y33_43 <=1 
C933: x33+x44-y33_44 <=1 
C934: x33+x46 <=1 
C935: x33+x49 <=1 
C936: x33+x50-y33_50 <=1 
C937: x33+x52 <=1 
C938: x33+x54-y33_54 <=1 
C939: x33+x55-y33_55 <=1 
C940: x33+x56-y33_56 <=1 
C941: x33+x58 <=1 
C942: x33+x59 <=1 
C943: x33+x60 <=1 
C944: x33+x62-y33_62 <=1 
C945: x34+x37-y34_37 <=1 
C946: x34+x40 <=1 
C947: x34+x41 <=1 
C948: x34+x45 <=1 
C949: x34+x46-y34_46 <=1 
C950: x34+x47-y34_47 <=1 
C951: x34+x48 <=1 
C952: x34+x49 <=1 
C953: x34+x50 <=1 
C954: x34+x51-y34_51 <=1 
C955: x34+x52-y34_52 <=1 
C956: x34+x54 <=1 
C957: x34+x55-y34_55 <=1 
C958: x34+x56-y34_56 <=1 
C959: x34+x58-y34_58 <=1 
C960: x34+x59-y34_59 <=1 
C961: x35+x36-y35_36 <=1 
C962: x35+x37-y35_37 <=1 
C963: x35+x39 <=1 
C964: x35+x40-y35_40 <=1 
C965: x35+x42 <=1 
C966: x35+x43 <=1 
C967: x35+x47-y35_47 <=1 
C968: x35+x51 <=1 
C969: x35+x55 <=1 
C970: x35+x60 <=1 
C971: x36+x37-y36_37 <=1 
C972: x36+x38 <=1 
C973: x36+x39-y36_39 <=1 
C974: x36+x40 <=1 
C975: x36+x44 <=1 
C976: x36+x45 <=1 
C977: x36+x47 <=1 
C978: x36+x48-y36_48 <=1 
C979: x36+x49-y36_49 <=1 
C980: x36+x50 <=1 
C981: x36+x51-y36_51 <=1 
C982: x36+x52-y36_52 <=1 
C983: x36+x55-y36_55 <=1 
C984: x36+x57 <=1 
C985: x36+x59-y36_59 <=1 
C986: x36+x60 <=1 
C987: x36+x61-y36_61 <=1 
C988: x37+x38-y37_38 <=1 
C989: x37+x39 <=1 
C990: x37+x40-y37_40 <=1 
C991: x37+x45 <=1 
C992: x37+x47 <=1 
C993: x37+x49 <=1 
C994: x37+x50 <=1 
C995: x37+x51-y37_51 <=1 
C996: x37+x53 <=1 
C997: x37+x55 <=1 
C998: x37+x56-y37_56 <=1 
C999: x37+x57 <=1 
C1000: x37+x58-y37_58 <=1 
C1001: x37+x59-y37_59 <=1 
C1002: x37+x60-y37_60 <=1 
C1003: x37+x61-y37_61 <=1 
C1004: x37+x62-y37_62 <=1 
C1005: x38+x41 <=1 
C1006: x38+x47 <=1 
C1007: x38+x48 <=1 
C1008: x38+x49 <=1 
C1009: x38+x50-y38_50 <=1 
C1010: x38+x51 <=1 
C1011: x38+x53 <=1 
C1012: x38+x54 <=1 
C1013: x38+x55 <=1 
C1014: x38+x56-y38_56 <=1 
C1015: x38+x60 <=1 
C1016: x38+x62-y38_62 <=1 
C1017: x39+x42-y39_42 <=1 
C1018: x39+x44-y39_44 <=1 
C1019: x39+x45-y39_45 <=1 
C1020: x39+x46-y39_46 <=1 
C1021: x39+x48 <=1 
C1022: x39+x49-y39_49 <=1 
C1023: x39+x50 <=1 
C1024: x39+x51-y39_51 <=1 
C1025: x39+x52-y39_52 <=1 
C1026: x39+x53-y39_53 <=1 
C1027: x39+x55 <=1 
C1028: x39+x56 <=1 
C1029: x39+x57 <=1 
C1030: x39+x61 <=1 
C1031: x40+x41-y40_41 <=1 
C1032: x40+x42-y40_42 <=1 
C1033: x40+x44-y40_44 <=1 
C1034: x40+x45-y40_45 <=1 
C1035: x40+x46-y40_46 <=1 
C1036: x40+x48 <=1 
C1037: x40+x49 <=1 
C1038: x40+x53-y40_53 <=1 
C1039: x40+x54-y40_54 <=1 
C1040: x40+x55-y40_55 <=1 
C1041: x40+x56-y40_56 <=1 
C1042: x40+x59-y40_59 <=1 
C1043: x40+x61 <=1 
C1044: x41+x42-y41_42 <=1 
C1045: x41+x45-y41_45 <=1 
C1046: x41+x46-y41_46 <=1 
C1047: x41+x47 <=1 
C1048: x41+x48-y41_48 <=1 
C1049: x41+x52 <=1 
C1050: x41+x53-y41_53 <=1 
C1051: x41+x56-y41_56 <=1 
C1052: x41+x57 <=1 
C1053: x41+x58 <=1 
C1054: x41+x61 <=1 
C1055: x42+x44 <=1 
C1056: x42+x45 <=1 
C1057: x42+x46 <=1 
C1058: x42+x47-y42_47 <=1 
C1059: x42+x48 <=1 
C1060: x42+x49 <=1 
C1061: x42+x50-y42_50 <=1 
C1062: x42+x51-y42_51 <=1 
C1063: x42+x54-y42_54 <=1 
C1064: x42+x55 <=1 
C1065: x42+x57-y42_57 <=1 
C1066: x42+x58 <=1 
C1067: x42+x61 <=1 
C1068: x43+x44 <=1 
C1069: x43+x47-y43_47 <=1 
C1070: x43+x49-y43_49 <=1 
C1071: x43+x55 <=1 
C1072: x43+x57-y43_57 <=1 
C1073: x43+x58-y43_58 <=1 
C1074: x43+x59 <=1 
C1075: x43+x60-y43_60 <=1 
C1076: x43+x61 <=1 
C1077: x43+x62-y43_62 <=1 
C1078: x44+x47-y44_47 <=1 
C1079: x44+x48 <=1 
C1080: x44+x49 <=1 
C1081: x44+x50-y44_50 <=1 
C1082: x44+x53 <=1 
C1083: x44+x54 <=1 
C1084: x44+x55 <=1 
C1085: x44+x57-y44_57 <=1 
C1086: x44+x58 <=1 
C1087: x44+x60 <=1 
C1088: x44+x62 <=1 
C1089: x45+x46-y45_46 <=1 
C1090: x45+x48 <=1 
C1091: x45+x49 <=1 
C1092: x45+x51 <=1 
C1093: x45+x52-y45_52 <=1 
C1094: x45+x54-y45_54 <=1 
C1095: x45+x55 <=1 
C1096: x45+x56-y45_56 <=1 
C1097: x45+x58-y45_58 <=1 
C1098: x45+x60 <=1 
C1099: x45+x61-y45_61 <=1 
C1100: x45+x62-y45_62 <=1 
C1101: x46+x48-y46_48 <=1 
C1102: x46+x50-y46_50 <=1 
C1103: x46+x51 <=1 
C1104: x46+x52-y46_52 <=1 
C1105: x46+x53-y46_53 <=1 
C1106: x46+x54-y46_54 <=1 
C1107: x46+x55-y46_55 <=1 
C1108: x46+x56 <=1 
C1109: x46+x57 <=1 
C1110: x46+x58 <=1 
C1111: x46+x60-y46_60 <=1 
C1112: x46+x61 <=1 
C1113: x46+x62-y46_62 <=1 
C1114: x47+x48 <=1 
C1115: x47+x51-y47_51 <=1 
C1116: x47+x53-y47_53 <=1 
C1117: x47+x55 <=1 
C1118: x47+x56 <=1 
C1119: x47+x57-y47_57 <=1 
C1120: x47+x58-y47_58 <=1 
C1121: x47+x59-y47_59 <=1 
C1122: x47+x61 <=1 
C1123: x48+x49-y48_49 <=1 
C1124: x48+x50-y48_50 <=1 
C1125: x48+x51 <=1 
C1126: x48+x52 <=1 
C1127: x48+x54 <=1 
C1128: x48+x56-y48_56 <=1 
C1129: x48+x59 <=1 
C1130: x49+x50 <=1 
C1131: x49+x51-y49_51 <=1 
C1132: x49+x52 <=1 
C1133: x49+x53 <=1 
C1134: x49+x55 <=1 
C1135: x49+x56 <=1 
C1136: x49+x60-y49_60 <=1 
C1137: x50+x52 <=1 
C1138: x50+x55-y50_55 <=1 
C1139: x50+x56-y50_56 <=1 
C1140: x50+x57 <=1 
C1141: x50+x59-y50_59 <=1 
C1142: x50+x61 <=1 
C1143: x50+x62-y50_62 <=1 
C1144: x51+x52 <=1 
C1145: x51+x53-y51_53 <=1 
C1146: x51+x58-y51_58 <=1 
C1147: x51+x59 <=1 
C1148: x51+x60 <=1 
C1149: x51+x61-y51_61 <=1 
C1150: x51+x62 <=1 
C1151: x52+x53 <=1 
C1152: x52+x54-y52_54 <=1 
C1153: x52+x56 <=1 
C1154: x52+x58-y52_58 <=1 
C1155: x52+x61 <=1 
C1156: x52+x62 <=1 
C1157: x53+x54 <=1 
C1158: x53+x57 <=1 
C1159: x53+x58 <=1 
C1160: x53+x59-y53_59 <=1 
C1161: x53+x60 <=1 
C1162: x53+x61-y53_61 <=1 
C1163: x53+x62 <=1 
C1164: x54+x55-y54_55 <=1 
C1165: x54+x58-y54_58 <=1 
C1166: x54+x59-y54_59 <=1 
C1167: x54+x60-y54_60 <=1 
C1168: x54+x61 <=1 
C1169: x54+x62-y54_62 <=1 
C1170: x55+x56-y55_56 <=1 
C1171: x55+x58 <=1 
C1172: x55+x60 <=1 
C1173: x55+x61 <=1 
C1174: x56+x57-y56_57 <=1 
C1175: x56+x59-y56_59 <=1 
C1176: x56+x61-y56_61 <=1 
C1177: x56+x62-y56_62 <=1 
C1178: x57+x58 <=1 
C1179: x57+x61 <=1 
C1180: x58+x59 <=1 
C1181: x58+x61-y58_61 <=1 
C1182: x59+x62-y59_62 <=1 
C1183: x60+x61-y60_61 <=1 
C1184: x60+x62-y60_62 <=1 
C1185: x61+x62 <=1 

binary
x0
x1
x2
x3
x4
x5
x6
x7
x8
x9
x10
x11
x12
x13
x14
x15
x16
x17
x18
x19
x20
x21
x22
x23
x24
x25
x26
x27
x28
x29
x30
x31
x32
x33
x34
x35
x36
x37
x38
x39
x40
x41
x42
x43
x44
x45
x46
x47
x48
x49
x50
x51
x52
x53
x54
x55
x56
x57
x58
x59
x60
x61
x62
