problem_generation/data/GISP/train/er_n=63_m=1185_p=0.60_SET2_setparam=100.00_alpha=0.50_992.sol
objective value:                                 1272
x0                                                  1 	(obj:100)
x3                                                  1 	(obj:100)
x13                                                 1 	(obj:100)
x21                                                 1 	(obj:100)
x31                                                 1 	(obj:100)
x39                                                 1 	(obj:100)
x40                                                 1 	(obj:100)
x43                                                 1 	(obj:100)
x46                                                 1 	(obj:100)
x47                                                 1 	(obj:100)
x52                                                 1 	(obj:100)
x54                                                 1 	(obj:100)
x60                                                 1 	(obj:100)
y21_46                                              1 	(obj:-1)
y43_60                                              1 	(obj:-1)
y40_54                                              1 	(obj:-1)
y21_54                                              1 	(obj:-1)
y54_60                                              1 	(obj:-1)
y21_31                                              1 	(obj:-1)
y21_40                                              1 	(obj:-1)
y39_52                                              1 	(obj:-1)
y46_60                                              1 	(obj:-1)
y13_40                                              1 	(obj:-1)
y39_46                                              1 	(obj:-1)
y13_21                                              1 	(obj:-1)
y46_54                                              1 	(obj:-1)
y0_54                                               1 	(obj:-1)
y0_13                                               1 	(obj:-1)
y0_31                                               1 	(obj:-1)
y52_54                                              1 	(obj:-1)
y3_31                                               1 	(obj:-1)
y21_43                                              1 	(obj:-1)
y3_21                                               1 	(obj:-1)
y31_60                                              1 	(obj:-1)
y31_46                                              1 	(obj:-1)
y43_47                                              1 	(obj:-1)
y13_47                                              1 	(obj:-1)
y46_52                                              1 	(obj:-1)
y40_46                                              1 	(obj:-1)
y21_60                                              1 	(obj:-1)
y3_47                                               1 	(obj:-1)
